
numDies = 20; % numero de dies
m = 3; % num linacs
s = 8; % num sessions per pacient
p = 45; % num pacients
tolerancia = 3; % diferencia maxima diaSesio i separacio
solicitud = 14; % dies maxims fins primera visita

disponible = [|  4,  4,  3,  3,  3, 15, 20, 15, 12, 15, 27, 32, 31, 28, 32, 49, 49, 49, 49, 49
              |  6,  7,  3,  8,  4, 15, 20, 23, 17, 17, 38, 33, 34, 33, 33, 49, 49, 49, 49, 49
              |  8,  9, 11, 12, 10, 19, 24, 23, 25, 19, 40, 39, 38, 33, 34, 49, 49, 49, 49, 49 |]; % capacitat de cada linac

duracio = [| 2, 2, 2, 2, 2, 2, 2, 2
            | 2, 2, 2, 2, 2, 2, 2, 2
            | 2, 2, 2, 2, 2, 2, 2, 2
            | 2, 2, 2, 2, 2, 2, 2, 2
            | 2, 2, 2, 2, 2, 2, 2, 2
            | 2, 2, 2, 2, 2, 2, 2, 2
            | 2, 2, 2, 2, 2, 2, 2, 2
            | 2, 2, 2, 2, 2, 2, 2, 2
            | 2, 2, 2, 2, 2, 2, 2, 2
            | 2, 2, 2, 2, 2, 3, 3, 3
            | 2, 2, 2, 2, 2, 3, 3, 3
            | 2, 2, 2, 2, 2, 3, 3, 3
            | 2, 2, 2, 2, 2, 3, 3, 3
            | 2, 2, 2, 2, 2, 3, 3, 3
            | 2, 2, 2, 2, 2, 3, 3, 3
            | 2, 2, 2, 2, 2, 3, 3, 3
            | 2, 2, 2, 2, 2, 3, 3, 3
            | 2, 2, 2, 2, 2, 3, 3, 3
            | 2, 2, 2, 2, 2, 3, 3, 3
            | 3, 3, 3, 3, 3, 2, 2, 2
            | 3, 3, 3, 3, 3, 2, 2, 2
            | 3, 3, 3, 3, 3, 2, 2, 2
            | 3, 3, 3, 3, 3, 2, 2, 2
            | 3, 3, 3, 3, 3, 2, 2, 2
            | 3, 3, 3, 3, 3, 2, 2, 2
            | 3, 3, 3, 3, 3, 2, 2, 2
            | 3, 3, 3, 3, 3, 2, 2, 2
            | 3, 3, 3, 3, 3, 2, 2, 2
            | 3, 3, 3, 3, 3, 2, 2, 2
            | 3, 3, 3, 3, 3, 3, 3, 3
            | 3, 3, 3, 3, 3, 3, 3, 3
            | 3, 3, 3, 3, 3, 3, 3, 3
            | 3, 3, 3, 3, 3, 3, 3, 3
            | 3, 3, 3, 3, 3, 3, 3, 3
            | 3, 3, 3, 3, 3, 3, 3, 3
            | 3, 3, 3, 3, 3, 3, 3, 3
            | 3, 3, 3, 3, 3, 3, 3, 3
            | 3, 3, 3, 3, 3, 3, 3, 3
            | 3, 3, 3, 3, 3, 3, 3, 3
            | 3, 3, 3, 3, 3, 3, 3, 3
            | 3, 3, 3, 3, 3, 3, 3, 3
            | 3, 3, 3, 3, 3, 3, 3, 3
            | 3, 3, 3, 3, 3, 3, 3, 3
            | 3, 3, 3, 3, 3, 3, 3, 3
            | 3, 3, 3, 3, 3, 3, 3, 3 |]; % duracion de la sesion (2 o 3 instants de temps)(30 o 45 mins)

separacio = [| 1, 2, 2, 1, 3, 1, 3
              | 1, 2, 2, 1, 3, 1, 3
              | 1, 2, 2, 1, 3, 1, 3
              | 1, 2, 2, 1, 3, 1, 3
              | 1, 2, 2, 1, 3, 1, 3
              | 1, 2, 2, 1, 3, 1, 3
              | 1, 2, 1, 2, 1, 2, 2
              | 1, 2, 1, 2, 1, 2, 2
              | 1, 2, 1, 2, 1, 2, 2
              | 1, 2, 1, 2, 1, 2, 1
              | 1, 2, 2, 1, 3, 1, 3
              | 1, 2, 2, 1, 3, 1, 3
              | 1, 2, 2, 1, 3, 1, 3
              | 1, 2, 2, 1, 3, 1, 3
              | 1, 2, 2, 1, 3, 1, 3
              | 1, 2, 2, 1, 3, 1, 3
              | 1, 2, 2, 1, 3, 1, 3
              | 1, 2, 2, 1, 3, 1, 3
              | 1, 2, 2, 1, 3, 1, 3
              | 1, 2, 2, 1, 3, 1, 3
              | 1, 2, 2, 1, 3, 1, 3
              | 1, 2, 2, 1, 3, 1, 3
              | 1, 2, 1, 2, 1, 2, 2
              | 1, 2, 1, 2, 1, 2, 2
              | 1, 2, 1, 2, 1, 2, 2
              | 1, 2, 2, 1, 3, 1, 3
              | 1, 2, 1, 2, 1, 2, 2
              | 1, 2, 1, 2, 1, 2, 2
              | 1, 2, 1, 2, 1, 2, 2
              | 1, 2, 1, 2, 1, 2, 2
              | 1, 2, 1, 2, 1, 2, 2
              | 1, 2, 1, 2, 1, 2, 2
              | 1, 2, 1, 2, 1, 2, 2
              | 1, 2, 1, 2, 1, 2, 2
              | 1, 2, 1, 2, 1, 2, 2
              | 1, 2, 1, 2, 1, 2, 1
              | 1, 2, 1, 2, 1, 2, 1
              | 1, 2, 1, 2, 1, 2, 1
              | 1, 2, 1, 2, 1, 2, 1
              | 1, 2, 2, 1, 3, 1, 3
              | 1, 2, 2, 1, 3, 1, 3
              | 1, 2, 2, 1, 3, 1, 3
              | 1, 2, 1, 2, 1, 2, 2
              | 1, 2, 1, 2, 1, 2, 2
              | 1, 2, 1, 2, 1, 2, 2 |]; % separacio ideal entre sesions 

grup = [1, 1, 1, 1, 1, 1, 2, 2, 2, 3, 4, 4, 4, 4, 4, 4, 4, 4, 4, 4, 4, 4, 5, 5, 5, 6, 7, 7, 7, 7, 7, 7, 7, 7, 7, 8, 8, 8, 8, 9, 9, 9, 10, 10, 10]; % pacients amb mateix grup son identics